n_res = 5;
rc = [ 2, 2, 2, 2, 2 ];
n_tasks = 100;
d = [ 20, 87, 31, 76, 17, 25, 32, 24, 18, 81, 72, 23, 28, 58, 99, 86, 76, 97, 45, 90, 27, 42, 48, 17, 46, 67, 98, 48, 27, 62, 28, 12, 19, 80, 50, 63, 94, 98, 50, 80, 14, 75, 50, 41, 55, 72, 18, 37, 79, 61, 20, 87, 31, 76, 17, 25, 32, 24, 18, 81, 72, 23, 28, 58, 99, 86, 76, 97, 45, 90, 27, 42, 48, 17, 46, 67, 98, 48, 27, 62, 28, 12, 19, 80, 50, 63, 94, 98, 50, 80, 14, 75, 50, 41, 55, 72, 18, 37, 79, 61 ];
rr = [| 1, 0, 0, 0, 0, 0, 0, 1, 0, 0, 0, 0, 0, 1, 0, 0, 0, 0, 1, 0, 0, 1, 0, 0, 0, 0, 1, 0, 0, 0, 0, 0, 0, 1, 0, 0, 1, 0, 0, 0, 0, 1, 0, 0, 0, 0, 0, 0, 0, 1, 1, 0, 0, 0, 0, 0, 0, 1, 0, 0, 0, 0, 0, 1, 0, 0, 0, 0, 1, 0, 0, 1, 0, 0, 0, 0, 1, 0, 0, 0, 0, 0, 0, 1, 0, 0, 1, 0, 0, 0, 0, 1, 0, 0, 0, 0, 0, 0, 0, 1
      | 0, 0, 1, 0, 0, 0, 0, 0, 1, 0, 1, 0, 0, 0, 0, 0, 1, 0, 0, 0, 0, 0, 0, 0, 1, 1, 0, 0, 0, 0, 0, 1, 0, 0, 0, 1, 0, 0, 0, 0, 0, 0, 0, 1, 0, 0, 0, 1, 0, 0, 0, 0, 1, 0, 0, 0, 0, 0, 1, 0, 1, 0, 0, 0, 0, 0, 1, 0, 0, 0, 0, 0, 0, 0, 1, 1, 0, 0, 0, 0, 0, 1, 0, 0, 0, 1, 0, 0, 0, 0, 0, 0, 0, 1, 0, 0, 0, 1, 0, 0
      | 0, 0, 0, 0, 1, 0, 1, 0, 0, 0, 0, 1, 0, 0, 0, 1, 0, 0, 0, 0, 0, 0, 0, 1, 0, 0, 0, 0, 0, 1, 0, 0, 0, 0, 1, 0, 0, 1, 0, 0, 0, 0, 1, 0, 0, 0, 1, 0, 0, 0, 0, 0, 0, 0, 1, 0, 1, 0, 0, 0, 0, 1, 0, 0, 0, 1, 0, 0, 0, 0, 0, 0, 0, 1, 0, 0, 0, 0, 0, 1, 0, 0, 0, 0, 1, 0, 0, 1, 0, 0, 0, 0, 1, 0, 0, 0, 1, 0, 0, 0
      | 0, 1, 0, 0, 0, 0, 0, 0, 0, 1, 0, 0, 0, 0, 1, 0, 0, 0, 0, 1, 0, 0, 1, 0, 0, 0, 0, 0, 1, 0, 0, 0, 1, 0, 0, 0, 0, 0, 1, 0, 0, 0, 0, 0, 1, 0, 0, 0, 1, 0, 0, 1, 0, 0, 0, 0, 0, 0, 0, 1, 0, 0, 0, 0, 1, 0, 0, 0, 0, 1, 0, 0, 1, 0, 0, 0, 0, 0, 1, 0, 0, 0, 1, 0, 0, 0, 0, 0, 1, 0, 0, 0, 0, 0, 1, 0, 0, 0, 1, 0
      | 0, 0, 0, 1, 0, 1, 0, 0, 0, 0, 0, 0, 1, 0, 0, 0, 0, 1, 0, 0, 1, 0, 0, 0, 0, 0, 0, 1, 0, 0, 1, 0, 0, 0, 0, 0, 0, 0, 0, 1, 1, 0, 0, 0, 0, 1, 0, 0, 0, 0, 0, 0, 0, 1, 0, 1, 0, 0, 0, 0, 0, 0, 1, 0, 0, 0, 0, 1, 0, 0, 1, 0, 0, 0, 0, 0, 0, 1, 0, 0, 1, 0, 0, 0, 0, 0, 0, 0, 0, 1, 1, 0, 0, 0, 0, 1, 0, 0, 0, 0 |];
suc = [ { 2 },
        { 3 },
        { 4 },
        { 5 },
        {  },
        { 7 },
        { 8 },
        { 9 },
        { 10 },
        {  },
        { 12 },
        { 13 },
        { 14 },
        { 15 },
        {  },
        { 17 },
        { 18 },
        { 19 },
        { 20 },
        {  },
        { 22 },
        { 23 },
        { 24 },
        { 25 },
        {  },
        { 27 },
        { 28 },
        { 29 },
        { 30 },
        {  },
        { 32 },
        { 33 },
        { 34 },
        { 35 },
        {  },
        { 37 },
        { 38 },
        { 39 },
        { 40 },
        {  },
        { 42 },
        { 43 },
        { 44 },
        { 45 },
        {  },
        { 47 },
        { 48 },
        { 49 },
        { 50 },
        {  },
        { 52 },
        { 53 },
        { 54 },
        { 55 },
        {  },
        { 57 },
        { 58 },
        { 59 },
        { 60 },
        {  },
        { 62 },
        { 63 },
        { 64 },
        { 65 },
        {  },
        { 67 },
        { 68 },
        { 69 },
        { 70 },
        {  },
        { 72 },
        { 73 },
        { 74 },
        { 75 },
        {  },
        { 77 },
        { 78 },
        { 79 },
        { 80 },
        {  },
        { 82 },
        { 83 },
        { 84 },
        { 85 },
        {  },
        { 87 },
        { 88 },
        { 89 },
        { 90 },
        {  },
        { 92 },
        { 93 },
        { 94 },
        { 95 },
        {  },
        { 97 },
        { 98 },
        { 99 },
        { 100 },
        {  } ];
